Cost: 408
0-34-46-8-13-27-4-0
0-9-25-32-44-3-0
0-45-29-15-47-48-30-0
0-26-12-17-0
0-49-23-43-41-42-22-2-0
0-19-14-11-38-10-0
Cost: 408
0-34-46-8-13-27-4-0
0-9-25-32-44-3-0
0-45-29-15-47-48-30-0
0-26-12-17-0
0-49-23-43-41-42-22-2-0
0-19-14-11-38-10-0
Cost: 408
0-34-46-8-13-27-4-0
0-9-25-32-44-3-0
0-45-29-15-47-48-30-0
0-26-12-17-0
0-49-23-43-41-42-22-2-0
0-19-14-11-38-10-0
Cost: 408
0-34-46-8-13-27-4-0
0-9-25-32-44-3-0
0-45-29-15-47-48-30-0
0-26-12-17-0
0-49-23-43-41-42-22-2-0
0-19-14-11-38-10-0
Cost: 408
0-34-46-8-13-27-4-0
0-9-25-32-44-3-0
0-45-29-15-47-48-30-0
0-26-12-17-0
0-49-23-43-41-42-22-2-0
0-19-14-11-38-10-0
Cost: 408
0-34-46-8-13-27-4-0
0-9-25-32-44-3-0
0-45-29-15-47-48-30-0
0-26-12-17-0
0-49-23-43-41-42-22-2-0
0-19-14-11-38-10-0
Cost: 408
0-34-46-8-13-27-4-0
0-9-25-32-44-3-0
0-45-29-15-47-48-30-0
0-26-12-17-0
0-49-23-43-41-42-22-2-0
0-19-14-11-38-10-0
Cost: 408
0-34-46-8-13-27-4-0
0-9-25-32-44-3-0
0-45-29-15-47-48-30-0
0-26-12-17-0
0-49-23-43-41-42-22-2-0
0-19-14-11-38-10-0
Cost: 408
0-34-46-8-13-27-4-0
0-9-25-32-44-3-0
0-45-29-15-47-48-30-0
0-26-12-17-0
0-49-23-43-41-42-22-2-0
0-19-14-11-38-10-0
Cost: 408
0-34-46-8-13-27-4-0
0-9-25-32-44-3-0
0-45-29-15-47-48-30-0
0-26-12-17-0
0-49-23-43-41-42-22-2-0
0-19-14-11-38-10-0
Cost: 408
0-10-11-14-19-8-0
0-30-48-47-5-15-13-0
0-17-12-26-0
0-40-9-25-32-44-0
0-2-22-42-41-43-23-49-0
0-4-45-29-27-34-46-0
Cost: 408
0-10-11-14-19-8-0
0-30-48-47-5-15-13-0
0-17-12-26-0
0-40-9-25-32-44-0
0-2-22-42-41-43-23-49-0
0-4-45-29-27-34-46-0
Cost: 408
0-10-11-14-19-8-0
0-30-48-47-5-15-13-0
0-17-12-26-0
0-40-9-25-32-44-0
0-2-22-42-41-43-23-49-0
0-4-45-29-27-34-46-0
Cost: 408
0-10-11-14-19-8-0
0-30-48-47-5-15-13-0
0-17-12-26-0
0-40-9-25-32-44-0
0-2-22-42-41-43-23-49-0
0-4-45-29-27-34-46-0
Cost: 408
0-10-11-14-19-8-0
0-30-48-47-5-15-13-0
0-17-12-26-0
0-40-9-25-32-44-0
0-2-22-42-41-43-23-49-0
0-4-45-29-27-34-46-0
Cost: 408
0-10-11-14-19-8-0
0-30-48-47-5-15-13-0
0-17-12-26-0
0-40-9-25-32-44-0
0-2-22-42-41-43-23-49-0
0-4-45-29-27-34-46-0
Cost: 408
0-10-11-14-19-8-0
0-30-48-47-5-15-13-0
0-17-12-26-0
0-40-9-25-32-44-0
0-2-22-42-41-43-23-49-0
0-4-45-29-27-34-46-0
Cost: 408
0-10-11-14-19-8-0
0-30-48-47-5-15-13-0
0-17-12-26-0
0-40-9-25-32-44-0
0-2-22-42-41-43-23-49-0
0-4-45-29-27-34-46-0
Cost: 408
0-10-11-14-19-8-0
0-30-48-47-5-15-13-0
0-17-12-26-0
0-40-9-25-32-44-0
0-2-22-42-41-43-23-49-0
0-4-45-29-27-34-46-0
Cost: 408
0-10-11-14-19-8-0
0-30-48-47-5-15-13-0
0-17-12-26-0
0-40-9-25-32-44-0
0-2-22-42-41-43-23-49-0
0-4-45-29-27-34-46-0
Cost: 408
0-10-11-14-19-8-0
0-30-48-47-5-15-13-0
0-17-12-26-0
0-40-9-25-32-44-0
0-2-22-42-41-43-23-49-0
0-4-45-29-27-34-46-0
Cost: 408
0-10-11-14-19-8-0
0-30-48-47-5-15-13-0
0-17-12-26-0
0-40-9-25-32-44-0
0-2-22-42-41-43-23-49-0
0-4-45-29-27-34-46-0
Cost: 408
0-34-46-27-29-45-4-0
0-8-19-14-11-10-0
0-13-15-5-47-48-30-0
0-26-12-17-0
0-44-32-25-9-40-0
0-49-23-43-41-42-22-2-0
Cost: 408
0-10-11-14-19-8-0
0-30-48-47-5-15-13-0
0-17-12-26-0
0-40-9-25-32-44-0
0-2-22-42-41-43-23-49-0
0-4-45-29-27-34-46-0
Cost: 408
0-10-11-14-19-8-0
0-30-48-47-5-15-13-0
0-17-12-26-0
0-40-9-25-32-44-0
0-2-22-42-41-43-23-49-0
0-4-45-29-27-34-46-0
Cost: 408
0-10-11-14-19-8-0
0-30-48-47-5-15-13-0
0-17-12-26-0
0-40-9-25-32-44-0
0-2-22-42-41-43-23-49-0
0-4-45-29-27-34-46-0
Cost: 408
0-2-22-42-41-43-23-49-0
0-44-32-25-9-40-0
0-8-19-14-11-10-0
0-4-45-29-27-34-46-0
0-17-12-26-0
0-30-48-47-5-15-13-0
Cost: 408
0-2-22-42-41-43-23-49-0
0-40-9-25-32-44-0
0-13-15-5-47-48-30-0
0-10-11-14-19-8-0
0-4-45-29-27-34-46-0
0-26-12-17-0
Cost: 408
0-30-48-47-5-15-13-0
0-26-12-17-0
0-40-9-25-32-44-0
0-8-19-14-11-10-0
0-49-23-43-41-42-22-2-0
0-4-45-29-27-34-46-0
Cost: 408
0-40-9-25-32-44-0
0-4-45-29-27-46-34-0
0-8-19-14-11-10-0
0-17-12-26-0
0-49-23-43-41-42-22-2-0
0-30-48-47-5-15-13-0
Cost: 408
0-17-12-26-0
0-4-45-29-27-46-34-0
0-44-32-25-9-40-0
0-2-22-42-41-43-23-49-0
0-13-15-5-47-48-30-0
0-8-19-14-11-10-0
